0 992
1 989
2 985
3 984
4 984
5 998
6 958
7 958
8 974
9 973
10 958
11 962
12 960
13 958
14 968
15 961
16 958
17 957
18 951
19 951
20 944
21 944
22 962
23 944
24 968
25 944
26 946
27 944
28 955
29 944
30 972
31 948
32 947
33 944
34 950
35 944
36 948
37 944
38 957
39 944
40 983
41 966
42 960
43 958
44 953
45 944
46 961
47 944
48 944
49 978
50 944
51 944
52 992
53 984
54 972
55 955
56 945
57 944
58 973
59 944
60 978
61 958
62 944
63 971
64 958
65 944
66 944
67 985
68 962
69 957
70 944
71 960
72 956
73 944
74 944
75 968
76 954
77 944
78 948
79 947
80 944
81 956
82 944
83 957
84 944
85 980
86 970
87 964
88 944
89 944
90 956
91 944
92 944
93 944
94 975
95 964
96 944
97 962
98 944
99 962
